NAME:  test1
TYPE: AGTSP
COMMENT: gtsp tours
DIMENSION:  73
GTSP_SETS: 13
EDGE_WEIGHT_TYPE: EXPLICIT
EDGE_WEIGHT_FORMAT: FULL_MATRIX 
EDGE_WEIGHT_SECTION
999999	0	999999	999999	999999	999999	19434	19434	19434	19426	999999	999999	19424	19424	19424	19416	999999	999999	19446	19446	19446	19446	19438	999999	19447	19447	19447	19447	19439	999999	19446	19446	19446	19446	19438	999999	19448	19448
999999	999999	0	999999	999999	999999	19434	19434	19434	19434	19426	999999	19424	19424	19424	19424	19416	999999	19446	19446	19446	19446	19446	19438	19447	19447	19447	19447	19447	19439	19446	19446	19446	19446	19446	19438	19448	19448
999999	999999	999999	0	999999	999999	19434	19434	19434	19434	19434	19426	19424	19424	19424	19424	19424	19416	19446	19446	19446	19446	999999	999999	19447	19447	19447	19447	999999	999999	19446	19446	19446	19446	999999	999999	19448	19448
999999	999999	999999	999999	0	999999	19434	19434	19434	19434	19434	999999	19424	19424	19424	19424	19424	999999	19446	19446	19446	19446	19446	999999	19447	19447	19447	19447	19447	999999	19446	19446	19446	19446	19446	999999	19448	19448
999999	999999	999999	999999	999999	0	19434	19434	19434	19434	19434	19434	19424	19424	19424	19424	19424	19424	19446	19446	19446	19446	19446	19446	19447	19447	19447	19447	19447	19447	19446	19446	19446	19446	19446	19446	19448	19448
0	999999	999999	999999	999999	999999	19434	19434	19426	999999	999999	999999	19424	19424	19416	999999	999999	999999	19446	19446	19446	19438	999999	999999	19447	19447	19447	19439	999999	999999	19446	19446	19446	19438	999999	999999	19448	19448
19434	19434	19434	19426	999999	999999	999999	0	999999	999999	999999	999999	19433	19433	19433	19425	999999	999999	19434	19434	19434	19426	999999	999999	19430	19430	19430	19422	999999	999999	19420	19420	19412	999999	999999	999999	19425	19425
19434	19434	19434	19434	19426	999999	999999	999999	0	999999	999999	999999	19433	19433	19433	19433	19425	999999	19434	19434	19434	19434	19426	999999	19430	19430	19430	19430	19422	999999	19420	19420	19420	19412	999999	999999	19425	19425
19434	19434	19434	19434	19434	19426	999999	999999	999999	0	999999	999999	19433	19433	19433	19433	19433	19425	19434	19434	19434	19434	19434	19426	19430	19430	19430	19430	19430	19422	19420	19420	19420	19420	19412	999999	19425	19425
19434	19434	19434	19434	19434	999999	999999	999999	999999	999999	0	999999	19433	19433	19433	19433	19433	999999	19434	19434	19434	19434	19434	999999	19430	19430	19430	19430	19430	999999	19420	19420	19420	19420	19420	19412	19425	19425
19434	19434	19434	19434	19434	19434	999999	999999	999999	999999	999999	0	19433	19433	19433	19433	19433	19433	19434	19434	19434	19434	19434	19434	19430	19430	19430	19430	19430	19430	19420	19420	19420	19420	19420	19420	19425	19425
19434	19434	19426	999999	999999	999999	0	999999	999999	999999	999999	999999	19433	19433	19425	999999	999999	999999	19434	19434	19426	999999	999999	999999	19430	19430	19422	999999	999999	999999	19420	19412	999999	999999	999999	999999	19425	19425
19424	19424	19424	19416	999999	999999	19433	19433	19433	19425	999999	999999	999999	0	999999	999999	999999	999999	19433	19433	19433	19425	999999	999999	19435	19435	19435	19427	999999	999999	19443	19443	19443	19443	19435	999999	19449	19449
19424	19424	19424	19424	19416	999999	19433	19433	19433	19433	19425	999999	999999	999999	0	999999	999999	999999	19433	19433	19433	19433	19425	999999	19435	19435	19435	19435	19427	999999	19443	19443	19443	19443	19443	19435	19449	19449
19424	19424	19424	19424	19424	19416	19433	19433	19433	19433	19433	19425	999999	999999	999999	0	999999	999999	19433	19433	19433	19433	19433	19425	19435	19435	19435	19435	19435	19427	19443	19443	19443	19443	999999	999999	19449	19449
19424	19424	19424	19424	19424	999999	19433	19433	19433	19433	19433	999999	999999	999999	999999	999999	0	999999	19433	19433	19433	19433	19433	999999	19435	19435	19435	19435	19435	999999	19443	19443	19443	19443	19443	999999	19449	19449
19424	19424	19424	19424	19424	19424	19433	19433	19433	19433	19433	19433	999999	999999	999999	999999	999999	0	19433	19433	19433	19433	19433	19433	19435	19435	19435	19435	19435	19435	19443	19443	19443	19443	19443	19443	19449	19449
19424	19424	19416	999999	999999	999999	19433	19433	19425	999999	999999	999999	0	999999	999999	999999	999999	999999	19433	19433	19425	999999	999999	999999	19435	19435	19427	999999	999999	999999	19443	19443	19443	19435	999999	999999	19449	19449
19446	19446	19446	19446	19438	999999	19434	19434	19434	19426	999999	999999	19433	19433	19433	19425	999999	999999	999999	0	999999	999999	999999	999999	19416	19416	19408	999999	999999	999999	19436	19436	19436	19428	999999	999999	19447	19447
19446	19446	19446	19446	19446	19438	19434	19434	19434	19434	19426	999999	19433	19433	19433	19433	19425	999999	999999	999999	0	999999	999999	999999	19416	19416	19416	19408	999999	999999	19436	19436	19436	19436	19428	999999	19447	19447
19446	19446	19446	19446	999999	999999	19434	19434	19434	19434	19434	19426	19433	19433	19433	19433	19433	19425	999999	999999	999999	0	999999	999999	19416	19416	19416	19416	19408	999999	19436	19436	19436	19436	19436	19428	19447	19447
19446	19446	19446	19446	19446	999999	19434	19434	19434	19434	19434	999999	19433	19433	19433	19433	19433	999999	999999	999999	999999	999999	0	999999	19416	19416	19416	19416	19416	19408	19436	19436	19436	19436	19436	999999	19447	19447
19446	19446	19446	19446	19446	19446	19434	19434	19434	19434	19434	19434	19433	19433	19433	19433	19433	19433	999999	999999	999999	999999	999999	0	19416	19416	19416	19416	19416	19416	19436	19436	19436	19436	19436	19436	19447	19447
19446	19446	19446	19438	999999	999999	19434	19434	19426	999999	999999	999999	19433	19433	19425	999999	999999	999999	0	999999	999999	999999	999999	999999	19416	19408	999999	999999	999999	999999	19436	19436	19428	999999	999999	999999	19447	19447
19447	19447	19447	19447	19439	999999	19430	19430	19430	19422	999999	999999	19435	19435	19435	19427	999999	999999	19416	19416	19408	999999	999999	999999	999999	0	999999	999999	999999	999999	19430	19430	19430	19422	999999	999999	19441	19441
19447	19447	19447	19447	19447	19439	19430	19430	19430	19430	19422	999999	19435	19435	19435	19435	19427	999999	19416	19416	19416	19408	999999	999999	999999	999999	0	999999	999999	999999	19430	19430	19430	19430	19422	999999	19441	19441
19447	19447	19447	19447	999999	999999	19430	19430	19430	19430	19430	19422	19435	19435	19435	19435	19435	19427	19416	19416	19416	19416	19408	999999	999999	999999	999999	0	999999	999999	19430	19430	19430	19430	19430	19422	19441	19441
19447	19447	19447	19447	19447	999999	19430	19430	19430	19430	19430	999999	19435	19435	19435	19435	19435	999999	19416	19416	19416	19416	19416	19408	999999	999999	999999	999999	0	999999	19430	19430	19430	19430	19430	999999	19441	19441
19447	19447	19447	19447	19447	19447	19430	19430	19430	19430	19430	19430	19435	19435	19435	19435	19435	19435	19416	19416	19416	19416	19416	19416	999999	999999	999999	999999	999999	0	19430	19430	19430	19430	19430	19430	19441	19441
19447	19447	19447	19439	999999	999999	19430	19430	19422	999999	999999	999999	19435	19435	19427	999999	999999	999999	19416	19408	999999	999999	999999	999999	0	999999	999999	999999	999999	999999	19430	19430	19422	999999	999999	999999	19441	19441
19446	19446	19446	19446	19438	999999	19420	19420	19412	999999	999999	999999	19443	19443	19443	19443	19435	999999	19436	19436	19436	19428	999999	999999	19430	19430	19430	19422	999999	999999	999999	0	999999	999999	999999	999999	19419	19419
19446	19446	19446	19446	19446	19438	19420	19420	19420	19412	999999	999999	19443	19443	19443	19443	19443	19435	19436	19436	19436	19436	19428	999999	19430	19430	19430	19430	19422	999999	999999	999999	0	999999	999999	999999	19419	19419
19446	19446	19446	19446	999999	999999	19420	19420	19420	19420	19412	999999	19443	19443	19443	19443	999999	999999	19436	19436	19436	19436	19436	19428	19430	19430	19430	19430	19430	19422	999999	999999	999999	0	999999	999999	19419	19419
19446	19446	19446	19446	19446	999999	19420	19420	19420	19420	19420	19412	19443	19443	19443	19443	19443	999999	19436	19436	19436	19436	19436	999999	19430	19430	19430	19430	19430	999999	999999	999999	999999	999999	0	999999	19419	19419
19446	19446	19446	19446	19446	19446	19420	19420	19420	19420	19420	19420	19443	19443	19443	19443	19443	19443	19436	19436	19436	19436	19436	19436	19430	19430	19430	19430	19430	19430	999999	999999	999999	999999	999999	0	19419	19419
19446	19446	19446	19438	999999	999999	19420	19412	999999	999999	999999	999999	19443	19443	19443	19435	999999	999999	19436	19436	19428	999999	999999	999999	19430	19430	19422	999999	999999	999999	0	999999	999999	999999	999999	999999	19419	19411
19448	19448	19448	19448	19440	999999	19425	19425	19425	19417	999999	999999	19449	19449	19449	19449	19441	999999	19447	19447	19447	19447	19439	999999	19441	19441	19441	19441	19433	999999	19419	19419	19411	999999	999999	999999	999999	0
19448	19448	19448	19448	19448	19440	19425	19425	19425	19425	19417	999999	19449	19449	19449	19449	19449	19441	19447	19447	19447	19447	19447	19439	19441	19441	19441	19441	19441	19433	19419	19419	19419	19411	999999	999999	999999	999999
GTSP_SET_SECTION:
1 1 2 3 4 5 6 -1
2 7 8 9 10 11 12 -1
3 13 14 15 16 17 18 -1
4 19 20 21 22 23 24 -1
5 25 26 27 28 29 30 -1
6 31 32 33 34 35 36 -1
7 37 38 39 40 41 42 -1
8 43 44 45 46 47 48 -1
9 49 50 51 52 53 54 -1
10 55 56 57 58 59 60 -1
11 61 62 63 64 65 66 -1
12 67 68 69 70 71 72 -1
13 73 -1
EOF